\ This file has been generated by DOcplex
\ ENCODING=ISO-8859-1
\Problem name: tiger problem

Minimize
 obj: V
Subject To
 c1: V + 148.218464892058 a1_0 + 218.199789988073 a1_1 + 218.199789988073 a1_2
      >= 0
 c2: V + 218.199789988073 a1_0 + 187.199789988073 a1_1 + 272.199789988073 a1_2
      >= 0
 c3: V + 218.199789988073 a1_0 + 272.199789988073 a1_1 + 187.199789988073 a1_2
      >= 0
 c4: a1_0 + a1_1 + a1_2 = 1

Bounds
 0 <= a1_0 <= 1
 0 <= a1_1 <= 1
 0 <= a1_2 <= 1
       V Free

Binaries
 a1_0 a1_1 a1_2
End
